c 0.011923551559448242 (encode time in sec)
p cnf 364 1048
1 2 3 4 0
1 2 -3 5 0
1 -2 3 5 0
1 -2 -3 5 0
-1 2 3 5 0
-1 2 -3 5 0
-1 -2 3 5 0
-1 -2 -3 4 0
6 7 8 9 0
6 7 -8 10 0
6 -7 8 10 0
6 -7 -8 10 0
-6 7 8 10 0
-6 7 -8 10 0
-6 -7 8 10 0
-6 -7 -8 9 0
11 12 13 14 0
11 12 -13 15 0
11 -12 13 15 0
11 -12 -13 15 0
-11 12 13 15 0
-11 12 -13 15 0
-11 -12 13 15 0
-11 -12 -13 14 0
16 17 18 1 2 3 6 7 8 20 0
16 17 18 1 2 3 6 7 -8 103 0
16 17 18 1 2 3 6 -7 8 19 0
16 17 18 1 2 3 6 -7 -8 140 0
16 17 18 1 2 3 -6 7 8 104 0
16 17 18 1 2 3 -6 7 -8 84 0
16 17 18 1 2 3 -6 -7 8 0
16 17 18 1 2 3 -6 -7 -8 0
16 17 18 1 2 -3 6 7 8 105 0
16 17 18 1 2 -3 6 7 -8 22 0
16 17 18 1 2 -3 6 -7 8 106 0
16 17 18 1 2 -3 6 -7 -8 159 0
16 17 18 1 2 -3 -6 7 8 0
16 17 18 1 2 -3 -6 7 -8 0
16 17 18 1 2 -3 -6 -7 8 0
16 17 18 1 2 -3 -6 -7 -8 0
16 17 18 1 -2 3 6 7 8 105 0
16 17 18 1 -2 3 6 7 -8 144 0
16 17 18 1 -2 3 6 -7 8 64 0
16 17 18 1 -2 3 6 -7 -8 0
16 17 18 1 -2 3 -6 7 8 0
16 17 18 1 -2 3 -6 7 -8 0
16 17 18 1 -2 3 -6 -7 8 0
16 17 18 1 -2 3 -6 -7 -8 0
16 17 18 1 -2 -3 6 7 8 107 0
16 17 18 1 -2 -3 6 7 -8 65 0
16 17 18 1 -2 -3 6 -7 8 0
16 17 18 1 -2 -3 6 -7 -8 0
16 17 18 1 -2 -3 -6 7 8 0
16 17 18 1 -2 -3 -6 7 -8 0
16 17 18 1 -2 -3 -6 -7 8 0
16 17 18 1 -2 -3 -6 -7 -8 0
16 17 18 -1 2 3 6 7 8 131 0
16 17 18 -1 2 3 6 7 -8 0
16 17 18 -1 2 3 6 -7 8 0
16 17 18 -1 2 3 6 -7 -8 0
16 17 18 -1 2 3 -6 7 8 0
16 17 18 -1 2 3 -6 7 -8 0
16 17 18 -1 2 3 -6 -7 8 0
16 17 18 -1 2 3 -6 -7 -8 0
16 17 18 -1 2 -3 6 7 8 102 0
16 17 18 -1 2 -3 6 7 -8 0
16 17 18 -1 2 -3 6 -7 8 0
16 17 18 -1 2 -3 6 -7 -8 0
16 17 18 -1 2 -3 -6 7 8 0
16 17 18 -1 2 -3 -6 7 -8 0
16 17 18 -1 2 -3 -6 -7 8 0
16 17 18 -1 2 -3 -6 -7 -8 0
16 17 18 -1 -2 3 6 7 8 66 0
16 17 18 -1 -2 3 6 7 -8 0
16 17 18 -1 -2 3 6 -7 8 0
16 17 18 -1 -2 3 6 -7 -8 0
16 17 18 -1 -2 3 -6 7 8 0
16 17 18 -1 -2 3 -6 7 -8 0
16 17 18 -1 -2 3 -6 -7 8 0
16 17 18 -1 -2 3 -6 -7 -8 0
16 17 18 -1 -2 -3 6 7 8 0
16 17 18 -1 -2 -3 6 7 -8 0
16 17 18 -1 -2 -3 6 -7 8 0
16 17 18 -1 -2 -3 6 -7 -8 0
16 17 18 -1 -2 -3 -6 7 8 0
16 17 18 -1 -2 -3 -6 7 -8 0
16 17 18 -1 -2 -3 -6 -7 8 0
16 17 18 -1 -2 -3 -6 -7 -8 0
16 17 -18 1 2 3 6 7 8 0
16 17 -18 1 2 3 6 7 -8 94 0
16 17 -18 1 2 3 6 -7 8 41 0
16 17 -18 1 2 3 6 -7 -8 112 0
16 17 -18 1 2 3 -6 7 8 171 0
16 17 -18 1 2 3 -6 7 -8 68 0
16 17 -18 1 2 3 -6 -7 8 23 0
16 17 -18 1 2 3 -6 -7 -8 0
16 17 -18 1 2 -3 6 7 8 58 0
16 17 -18 1 2 -3 6 7 -8 134 0
16 17 -18 1 2 -3 6 -7 8 110 0
16 17 -18 1 2 -3 6 -7 -8 95 0
16 17 -18 1 2 -3 -6 7 8 42 0
16 17 -18 1 2 -3 -6 7 -8 0
16 17 -18 1 2 -3 -6 -7 8 0
16 17 -18 1 2 -3 -6 -7 -8 0
16 17 -18 1 -2 3 6 7 8 58 0
16 17 -18 1 -2 3 6 7 -8 25 0
16 17 -18 1 -2 3 6 -7 8 26 0
16 17 -18 1 -2 3 6 -7 -8 162 0
16 17 -18 1 -2 3 -6 7 8 59 0
16 17 -18 1 -2 3 -6 7 -8 0
16 17 -18 1 -2 3 -6 -7 8 0
16 17 -18 1 -2 3 -6 -7 -8 0
16 17 -18 1 -2 -3 6 7 8 174 0
16 17 -18 1 -2 -3 6 7 -8 108 0
16 17 -18 1 -2 -3 6 -7 8 163 0
16 17 -18 1 -2 -3 6 -7 -8 85 0
16 17 -18 1 -2 -3 -6 7 8 0
16 17 -18 1 -2 -3 -6 7 -8 0
16 17 -18 1 -2 -3 -6 -7 8 0
16 17 -18 1 -2 -3 -6 -7 -8 0
16 17 -18 -1 2 3 6 7 8 69 0
16 17 -18 -1 2 3 6 7 -8 109 0
16 17 -18 -1 2 3 6 -7 8 160 0
16 17 -18 -1 2 3 6 -7 -8 0
16 17 -18 -1 2 3 -6 7 8 0
16 17 -18 -1 2 3 -6 7 -8 0
16 17 -18 -1 2 3 -6 -7 8 0
16 17 -18 -1 2 3 -6 -7 -8 0
16 17 -18 -1 2 -3 6 7 8 145 0
16 17 -18 -1 2 -3 6 7 -8 128 0
16 17 -18 -1 2 -3 6 -7 8 86 0
16 17 -18 -1 2 -3 6 -7 -8 0
16 17 -18 -1 2 -3 -6 7 8 0
16 17 -18 -1 2 -3 -6 7 -8 0
16 17 -18 -1 2 -3 -6 -7 8 0
16 17 -18 -1 2 -3 -6 -7 -8 0
16 17 -18 -1 -2 3 6 7 8 146 0
16 17 -18 -1 -2 3 6 7 -8 84 0
16 17 -18 -1 -2 3 6 -7 8 0
16 17 -18 -1 -2 3 6 -7 -8 0
16 17 -18 -1 -2 3 -6 7 8 0
16 17 -18 -1 -2 3 -6 7 -8 0
16 17 -18 -1 -2 3 -6 -7 8 0
16 17 -18 -1 -2 3 -6 -7 -8 0
16 17 -18 -1 -2 -3 6 7 8 28 0
16 17 -18 -1 -2 -3 6 7 -8 0
16 17 -18 -1 -2 -3 6 -7 8 0
16 17 -18 -1 -2 -3 6 -7 -8 0
16 17 -18 -1 -2 -3 -6 7 8 0
16 17 -18 -1 -2 -3 -6 7 -8 0
16 17 -18 -1 -2 -3 -6 -7 8 0
16 17 -18 -1 -2 -3 -6 -7 -8 0
16 -17 18 1 2 3 6 7 8 0
16 -17 18 1 2 3 6 7 -8 71 0
16 -17 18 1 2 3 6 -7 8 0
16 -17 18 1 2 3 6 -7 -8 24 0
16 -17 18 1 2 3 -6 7 8 169 0
16 -17 18 1 2 3 -6 7 -8 68 0
16 -17 18 1 2 3 -6 -7 8 27 0
16 -17 18 1 2 3 -6 -7 -8 137 0
16 -17 18 1 2 -3 6 7 8 0
16 -17 18 1 2 -3 6 7 -8 130 0
16 -17 18 1 2 -3 6 -7 8 106 0
16 -17 18 1 2 -3 6 -7 -8 111 0
16 -17 18 1 2 -3 -6 7 8 147 0
16 -17 18 1 2 -3 -6 7 -8 87 0
16 -17 18 1 2 -3 -6 -7 8 113 0
16 -17 18 1 2 -3 -6 -7 -8 0
16 -17 18 1 -2 3 6 7 8 0
16 -17 18 1 -2 3 6 7 -8 43 0
16 -17 18 1 -2 3 6 -7 8 70 0
16 -17 18 1 -2 3 6 -7 -8 96 0
16 -17 18 1 -2 3 -6 7 8 145 0
16 -17 18 1 -2 3 -6 7 -8 37 0
16 -17 18 1 -2 3 -6 -7 8 0
16 -17 18 1 -2 3 -6 -7 -8 0
16 -17 18 1 -2 -3 6 7 8 0
16 -17 18 1 -2 -3 6 7 -8 102 0
16 -17 18 1 -2 -3 6 -7 8 100 0
16 -17 18 1 -2 -3 6 -7 -8 72 0
16 -17 18 1 -2 -3 -6 7 8 64 0
16 -17 18 1 -2 -3 -6 7 -8 0
16 -17 18 1 -2 -3 -6 -7 8 0
16 -17 18 1 -2 -3 -6 -7 -8 0
16 -17 18 -1 2 3 6 7 8 0
16 -17 18 -1 2 3 6 7 -8 55 0
16 -17 18 -1 2 3 6 -7 8 172 0
16 -17 18 -1 2 3 6 -7 -8 174 0
16 -17 18 -1 2 3 -6 7 8 153 0
16 -17 18 -1 2 3 -6 7 -8 54 0
16 -17 18 -1 2 3 -6 -7 8 0
16 -17 18 -1 2 3 -6 -7 -8 0
16 -17 18 -1 2 -3 6 7 8 94 0
16 -17 18 -1 2 -3 6 7 -8 128 0
16 -17 18 -1 2 -3 6 -7 8 72 0
16 -17 18 -1 2 -3 6 -7 -8 143 0
16 -17 18 -1 2 -3 -6 7 8 0
16 -17 18 -1 2 -3 -6 7 -8 0
16 -17 18 -1 2 -3 -6 -7 8 0
16 -17 18 -1 2 -3 -6 -7 -8 0
16 -17 18 -1 -2 3 6 7 8 164 0
16 -17 18 -1 -2 3 6 7 -8 173 0
16 -17 18 -1 -2 3 6 -7 8 67 0
16 -17 18 -1 -2 3 6 -7 -8 0
16 -17 18 -1 -2 3 -6 7 8 0
16 -17 18 -1 -2 3 -6 7 -8 0
16 -17 18 -1 -2 3 -6 -7 8 0
16 -17 18 -1 -2 3 -6 -7 -8 0
16 -17 18 -1 -2 -3 6 7 8 28 0
16 -17 18 -1 -2 -3 6 7 -8 0
16 -17 18 -1 -2 -3 6 -7 8 0
16 -17 18 -1 -2 -3 6 -7 -8 0
16 -17 18 -1 -2 -3 -6 7 8 0
16 -17 18 -1 -2 -3 -6 7 -8 0
16 -17 18 -1 -2 -3 -6 -7 8 0
16 -17 18 -1 -2 -3 -6 -7 -8 0
16 -17 -18 1 2 3 6 7 8 0
16 -17 -18 1 2 3 6 7 -8 0
16 -17 -18 1 2 3 6 -7 8 0
16 -17 -18 1 2 3 6 -7 -8 0
16 -17 -18 1 2 3 -6 7 8 44 0
16 -17 -18 1 2 3 -6 7 -8 141 0
16 -17 -18 1 2 3 -6 -7 8 29 0
16 -17 -18 1 2 3 -6 -7 -8 73 0
16 -17 -18 1 2 -3 6 7 8 0
16 -17 -18 1 2 -3 6 7 -8 0
16 -17 -18 1 2 -3 6 -7 8 0
16 -17 -18 1 2 -3 6 -7 -8 135 0
16 -17 -18 1 2 -3 -6 7 8 147 0
16 -17 -18 1 2 -3 -6 7 -8 142 0
16 -17 -18 1 2 -3 -6 -7 8 42 0
16 -17 -18 1 2 -3 -6 -7 -8 0
16 -17 -18 1 -2 3 6 7 8 0
16 -17 -18 1 -2 3 6 7 -8 0
16 -17 -18 1 -2 3 6 -7 8 45 0
16 -17 -18 1 -2 3 6 -7 -8 62 0
16 -17 -18 1 -2 3 -6 7 8 108 0
16 -17 -18 1 -2 3 -6 7 -8 98 0
16 -17 -18 1 -2 3 -6 -7 8 78 0
16 -17 -18 1 -2 3 -6 -7 -8 0
16 -17 -18 1 -2 -3 6 7 8 0
16 -17 -18 1 -2 -3 6 7 -8 0
16 -17 -18 1 -2 -3 6 -7 8 163 0
16 -17 -18 1 -2 -3 6 -7 -8 148 0
16 -17 -18 1 -2 -3 -6 7 8 166 0
16 -17 -18 1 -2 -3 -6 7 -8 132 0
16 -17 -18 1 -2 -3 -6 -7 8 0
16 -17 -18 1 -2 -3 -6 -7 -8 0
16 -17 -18 -1 2 3 6 7 8 0
16 -17 -18 -1 2 3 6 7 -8 106 0
16 -17 -18 -1 2 3 6 -7 8 97 0
16 -17 -18 -1 2 3 6 -7 -8 35 0
16 -17 -18 -1 2 3 -6 7 8 46 0
16 -17 -18 -1 2 3 -6 7 -8 79 0
16 -17 -18 -1 2 3 -6 -7 8 0
16 -17 -18 -1 2 3 -6 -7 -8 0
16 -17 -18 -1 2 -3 6 7 8 0
16 -17 -18 -1 2 -3 6 7 -8 68 0
16 -17 -18 -1 2 -3 6 -7 8 74 0
16 -17 -18 -1 2 -3 6 -7 -8 128 0
16 -17 -18 -1 2 -3 -6 7 8 143 0
16 -17 -18 -1 2 -3 -6 7 -8 0
16 -17 -18 -1 2 -3 -6 -7 8 0
16 -17 -18 -1 2 -3 -6 -7 -8 0
16 -17 -18 -1 -2 3 6 7 8 30 0
16 -17 -18 -1 -2 3 6 7 -8 128 0
16 -17 -18 -1 -2 3 6 -7 8 125 0
16 -17 -18 -1 -2 3 6 -7 -8 120 0
16 -17 -18 -1 -2 3 -6 7 8 0
16 -17 -18 -1 -2 3 -6 7 -8 0
16 -17 -18 -1 -2 3 -6 -7 8 0
16 -17 -18 -1 -2 3 -6 -7 -8 0
16 -17 -18 -1 -2 -3 6 7 8 149 0
16 -17 -18 -1 -2 -3 6 7 -8 167 0
16 -17 -18 -1 -2 -3 6 -7 8 31 0
16 -17 -18 -1 -2 -3 6 -7 -8 0
16 -17 -18 -1 -2 -3 -6 7 8 0
16 -17 -18 -1 -2 -3 -6 7 -8 0
16 -17 -18 -1 -2 -3 -6 -7 8 0
16 -17 -18 -1 -2 -3 -6 -7 -8 0
-16 17 18 1 2 3 6 7 8 0
-16 17 18 1 2 3 6 7 -8 0
-16 17 18 1 2 3 6 -7 8 0
-16 17 18 1 2 3 6 -7 -8 0
-16 17 18 1 2 3 -6 7 8 0
-16 17 18 1 2 3 -6 7 -8 132 0
-16 17 18 1 2 3 -6 -7 8 32 0
-16 17 18 1 2 3 -6 -7 -8 73 0
-16 17 18 1 2 -3 6 7 8 0
-16 17 18 1 2 -3 6 7 -8 0
-16 17 18 1 2 -3 6 -7 8 0
-16 17 18 1 2 -3 6 -7 -8 159 0
-16 17 18 1 2 -3 -6 7 8 114 0
-16 17 18 1 2 -3 -6 7 -8 142 0
-16 17 18 1 2 -3 -6 -7 8 53 0
-16 17 18 1 2 -3 -6 -7 -8 155 0
-16 17 18 1 -2 3 6 7 8 0
-16 17 18 1 -2 3 6 7 -8 0
-16 17 18 1 -2 3 6 -7 8 45 0
-16 17 18 1 -2 3 6 -7 -8 154 0
-16 17 18 1 -2 3 -6 7 8 156 0
-16 17 18 1 -2 3 -6 7 -8 89 0
-16 17 18 1 -2 3 -6 -7 8 168 0
-16 17 18 1 -2 3 -6 -7 -8 161 0
-16 17 18 1 -2 -3 6 7 8 0
-16 17 18 1 -2 -3 6 7 -8 0
-16 17 18 1 -2 -3 6 -7 8 61 0
-16 17 18 1 -2 -3 6 -7 -8 148 0
-16 17 18 1 -2 -3 -6 7 8 70 0
-16 17 18 1 -2 -3 -6 7 -8 35 0
-16 17 18 1 -2 -3 -6 -7 8 153 0
-16 17 18 1 -2 -3 -6 -7 -8 0
-16 17 18 -1 2 3 6 7 8 0
-16 17 18 -1 2 3 6 7 -8 0
-16 17 18 -1 2 3 6 -7 8 119 0
-16 17 18 -1 2 3 6 -7 -8 68 0
-16 17 18 -1 2 3 -6 7 8 138 0
-16 17 18 -1 2 3 -6 7 -8 167 0
-16 17 18 -1 2 3 -6 -7 8 63 0
-16 17 18 -1 2 3 -6 -7 -8 0
-16 17 18 -1 2 -3 6 7 8 0
-16 17 18 -1 2 -3 6 7 -8 38 0
-16 17 18 -1 2 -3 6 -7 8 72 0
-16 17 18 -1 2 -3 6 -7 -8 150 0
-16 17 18 -1 2 -3 -6 7 8 121 0
-16 17 18 -1 2 -3 -6 7 -8 88 0
-16 17 18 -1 2 -3 -6 -7 8 0
-16 17 18 -1 2 -3 -6 -7 -8 0
-16 17 18 -1 -2 3 6 7 8 47 0
-16 17 18 -1 -2 3 6 7 -8 128 0
-16 17 18 -1 -2 3 6 -7 8 60 0
-16 17 18 -1 -2 3 6 -7 -8 139 0
-16 17 18 -1 -2 3 -6 7 8 65 0
-16 17 18 -1 -2 3 -6 7 -8 115 0
-16 17 18 -1 -2 3 -6 -7 8 0
-16 17 18 -1 -2 3 -6 -7 -8 0
-16 17 18 -1 -2 -3 6 7 8 71 0
-16 17 18 -1 -2 -3 6 7 -8 133 0
-16 17 18 -1 -2 -3 6 -7 8 24 0
-16 17 18 -1 -2 -3 6 -7 -8 37 0
-16 17 18 -1 -2 -3 -6 7 8 33 0
-16 17 18 -1 -2 -3 -6 7 -8 0
-16 17 18 -1 -2 -3 -6 -7 8 0
-16 17 18 -1 -2 -3 -6 -7 -8 0
-16 17 -18 1 2 3 6 7 8 0
-16 17 -18 1 2 3 6 7 -8 0
-16 17 -18 1 2 3 6 -7 8 0
-16 17 -18 1 2 3 6 -7 -8 0
-16 17 -18 1 2 3 -6 7 8 0
-16 17 -18 1 2 3 -6 7 -8 132 0
-16 17 -18 1 2 3 -6 -7 8 23 0
-16 17 -18 1 2 3 -6 -7 -8 173 0
-16 17 -18 1 2 -3 6 7 8 0
-16 17 -18 1 2 -3 6 7 -8 0
-16 17 -18 1 2 -3 6 -7 8 0
-16 17 -18 1 2 -3 6 -7 -8 0
-16 17 -18 1 2 -3 -6 7 8 113 0
-16 17 -18 1 2 -3 -6 7 -8 0
-16 17 -18 1 2 -3 -6 -7 8 147 0
-16 17 -18 1 2 -3 -6 -7 -8 48 0
-16 17 -18 1 -2 3 6 7 8 0
-16 17 -18 1 -2 3 6 7 -8 0
-16 17 -18 1 -2 3 6 -7 8 0
-16 17 -18 1 -2 3 6 -7 -8 0
-16 17 -18 1 -2 3 -6 7 8 71 0
-16 17 -18 1 -2 3 -6 7 -8 122 0
-16 17 -18 1 -2 3 -6 -7 8 118 0
-16 17 -18 1 -2 3 -6 -7 -8 116 0
-16 17 -18 1 -2 -3 6 7 8 0
-16 17 -18 1 -2 -3 6 7 -8 0
-16 17 -18 1 -2 -3 6 -7 8 61 0
-16 17 -18 1 -2 -3 6 -7 -8 0
-16 17 -18 1 -2 -3 -6 7 8 158 0
-16 17 -18 1 -2 -3 -6 7 -8 173 0
-16 17 -18 1 -2 -3 -6 -7 8 138 0
-16 17 -18 1 -2 -3 -6 -7 -8 157 0
-16 17 -18 -1 2 3 6 7 8 0
-16 17 -18 -1 2 3 6 7 -8 0
-16 17 -18 -1 2 3 6 -7 8 0
-16 17 -18 -1 2 3 6 -7 -8 132 0
-16 17 -18 -1 2 3 -6 7 8 127 0
-16 17 -18 -1 2 3 -6 7 -8 75 0
-16 17 -18 -1 2 3 -6 -7 8 136 0
-16 17 -18 -1 2 3 -6 -7 -8 0
-16 17 -18 -1 2 -3 6 7 8 0
-16 17 -18 -1 2 -3 6 7 -8 132 0
-16 17 -18 -1 2 -3 6 -7 8 0
-16 17 -18 -1 2 -3 6 -7 -8 143 0
-16 17 -18 -1 2 -3 -6 7 8 92 0
-16 17 -18 -1 2 -3 -6 7 -8 34 0
-16 17 -18 -1 2 -3 -6 -7 8 140 0
-16 17 -18 -1 2 -3 -6 -7 -8 0
-16 17 -18 -1 -2 3 6 7 8 0
-16 17 -18 -1 -2 3 6 7 -8 132 0
-16 17 -18 -1 -2 3 6 -7 8 144 0
-16 17 -18 -1 -2 3 6 -7 -8 36 0
-16 17 -18 -1 -2 3 -6 7 8 82 0
-16 17 -18 -1 -2 3 -6 7 -8 123 0
-16 17 -18 -1 -2 3 -6 -7 8 120 0
-16 17 -18 -1 -2 3 -6 -7 -8 0
-16 17 -18 -1 -2 -3 6 7 8 156 0
-16 17 -18 -1 -2 -3 6 7 -8 165 0
-16 17 -18 -1 -2 -3 6 -7 8 39 0
-16 17 -18 -1 -2 -3 6 -7 -8 147 0
-16 17 -18 -1 -2 -3 -6 7 8 31 0
-16 17 -18 -1 -2 -3 -6 7 -8 0
-16 17 -18 -1 -2 -3 -6 -7 8 0
-16 17 -18 -1 -2 -3 -6 -7 -8 0
-16 -17 18 1 2 3 6 7 8 0
-16 -17 18 1 2 3 6 7 -8 0
-16 -17 18 1 2 3 6 -7 8 0
-16 -17 18 1 2 3 6 -7 -8 0
-16 -17 18 1 2 3 -6 7 8 0
-16 -17 18 1 2 3 -6 7 -8 0
-16 -17 18 1 2 3 -6 -7 8 0
-16 -17 18 1 2 3 -6 -7 -8 49 0
-16 -17 18 1 2 -3 6 7 8 0
-16 -17 18 1 2 -3 6 7 -8 0
-16 -17 18 1 2 -3 6 -7 8 0
-16 -17 18 1 2 -3 6 -7 -8 0
-16 -17 18 1 2 -3 -6 7 8 0
-16 -17 18 1 2 -3 -6 7 -8 117 0
-16 -17 18 1 2 -3 -6 -7 8 124 0
-16 -17 18 1 2 -3 -6 -7 -8 99 0
-16 -17 18 1 -2 3 6 7 8 0
-16 -17 18 1 -2 3 6 7 -8 0
-16 -17 18 1 -2 3 6 -7 8 0
-16 -17 18 1 -2 3 6 -7 -8 0
-16 -17 18 1 -2 3 -6 7 8 0
-16 -17 18 1 -2 3 -6 7 -8 113 0
-16 -17 18 1 -2 3 -6 -7 8 124 0
-16 -17 18 1 -2 3 -6 -7 -8 134 0
-16 -17 18 1 -2 -3 6 7 8 0
-16 -17 18 1 -2 -3 6 7 -8 0
-16 -17 18 1 -2 -3 6 -7 8 0
-16 -17 18 1 -2 -3 6 -7 -8 0
-16 -17 18 1 -2 -3 -6 7 8 0
-16 -17 18 1 -2 -3 -6 7 -8 143 0
-16 -17 18 1 -2 -3 -6 -7 8 175 0
-16 -17 18 1 -2 -3 -6 -7 -8 170 0
-16 -17 18 -1 2 3 6 7 8 0
-16 -17 18 -1 2 3 6 7 -8 0
-16 -17 18 -1 2 3 6 -7 8 0
-16 -17 18 -1 2 3 6 -7 -8 0
-16 -17 18 -1 2 3 -6 7 8 153 0
-16 -17 18 -1 2 3 -6 7 -8 77 0
-16 -17 18 -1 2 3 -6 -7 8 56 0
-16 -17 18 -1 2 3 -6 -7 -8 116 0
-16 -17 18 -1 2 -3 6 7 8 0
-16 -17 18 -1 2 -3 6 7 -8 0
-16 -17 18 -1 2 -3 6 -7 8 0
-16 -17 18 -1 2 -3 6 -7 -8 132 0
-16 -17 18 -1 2 -3 -6 7 8 90 0
-16 -17 18 -1 2 -3 -6 7 -8 112 0
-16 -17 18 -1 2 -3 -6 -7 8 34 0
-16 -17 18 -1 2 -3 -6 -7 -8 126 0
-16 -17 18 -1 -2 3 6 7 8 0
-16 -17 18 -1 -2 3 6 7 -8 0
-16 -17 18 -1 -2 3 6 -7 8 0
-16 -17 18 -1 -2 3 6 -7 -8 0
-16 -17 18 -1 -2 3 -6 7 8 28 0
-16 -17 18 -1 -2 3 -6 7 -8 83 0
-16 -17 18 -1 -2 3 -6 -7 8 129 0
-16 -17 18 -1 -2 3 -6 -7 -8 64 0
-16 -17 18 -1 -2 -3 6 7 8 0
-16 -17 18 -1 -2 -3 6 7 -8 93 0
-16 -17 18 -1 -2 -3 6 -7 8 40 0
-16 -17 18 -1 -2 -3 6 -7 -8 151 0
-16 -17 18 -1 -2 -3 -6 7 8 34 0
-16 -17 18 -1 -2 -3 -6 7 -8 36 0
-16 -17 18 -1 -2 -3 -6 -7 8 67 0
-16 -17 18 -1 -2 -3 -6 -7 -8 45 0
-16 -17 -18 1 2 3 6 7 8 0
-16 -17 -18 1 2 3 6 7 -8 0
-16 -17 -18 1 2 3 6 -7 8 0
-16 -17 -18 1 2 3 6 -7 -8 0
-16 -17 -18 1 2 3 -6 7 8 0
-16 -17 -18 1 2 3 -6 7 -8 0
-16 -17 -18 1 2 3 -6 -7 8 0
-16 -17 -18 1 2 3 -6 -7 -8 49 0
-16 -17 -18 1 2 -3 6 7 8 0
-16 -17 -18 1 2 -3 6 7 -8 0
-16 -17 -18 1 2 -3 6 -7 8 0
-16 -17 -18 1 2 -3 6 -7 -8 0
-16 -17 -18 1 2 -3 -6 7 8 0
-16 -17 -18 1 2 -3 -6 7 -8 0
-16 -17 -18 1 2 -3 -6 -7 8 0
-16 -17 -18 1 2 -3 -6 -7 -8 91 0
-16 -17 -18 1 -2 3 6 7 8 0
-16 -17 -18 1 -2 3 6 7 -8 0
-16 -17 -18 1 -2 3 6 -7 8 0
-16 -17 -18 1 -2 3 6 -7 -8 0
-16 -17 -18 1 -2 3 -6 7 8 0
-16 -17 -18 1 -2 3 -6 7 -8 0
-16 -17 -18 1 -2 3 -6 -7 8 0
-16 -17 -18 1 -2 3 -6 -7 -8 69 0
-16 -17 -18 1 -2 -3 6 7 8 0
-16 -17 -18 1 -2 -3 6 7 -8 0
-16 -17 -18 1 -2 -3 6 -7 8 0
-16 -17 -18 1 -2 -3 6 -7 -8 0
-16 -17 -18 1 -2 -3 -6 7 8 0
-16 -17 -18 1 -2 -3 -6 7 -8 0
-16 -17 -18 1 -2 -3 -6 -7 8 153 0
-16 -17 -18 1 -2 -3 -6 -7 -8 76 0
-16 -17 -18 -1 2 3 6 7 8 0
-16 -17 -18 -1 2 3 6 7 -8 0
-16 -17 -18 -1 2 3 6 -7 8 0
-16 -17 -18 -1 2 3 6 -7 -8 0
-16 -17 -18 -1 2 3 -6 7 8 0
-16 -17 -18 -1 2 3 -6 7 -8 54 0
-16 -17 -18 -1 2 3 -6 -7 8 50 0
-16 -17 -18 -1 2 3 -6 -7 -8 51 0
-16 -17 -18 -1 2 -3 6 7 8 0
-16 -17 -18 -1 2 -3 6 7 -8 0
-16 -17 -18 -1 2 -3 6 -7 8 0
-16 -17 -18 -1 2 -3 6 -7 -8 0
-16 -17 -18 -1 2 -3 -6 7 8 0
-16 -17 -18 -1 2 -3 -6 7 -8 88 0
-16 -17 -18 -1 2 -3 -6 -7 8 57 0
-16 -17 -18 -1 2 -3 -6 -7 -8 152 0
-16 -17 -18 -1 -2 3 6 7 8 0
-16 -17 -18 -1 -2 3 6 7 -8 0
-16 -17 -18 -1 -2 3 6 -7 8 0
-16 -17 -18 -1 -2 3 6 -7 -8 0
-16 -17 -18 -1 -2 3 -6 7 8 71 0
-16 -17 -18 -1 -2 3 -6 7 -8 72 0
-16 -17 -18 -1 -2 3 -6 -7 8 80 0
-16 -17 -18 -1 -2 3 -6 -7 -8 81 0
-16 -17 -18 -1 -2 -3 6 7 8 0
-16 -17 -18 -1 -2 -3 6 7 -8 0
-16 -17 -18 -1 -2 -3 6 -7 8 31 0
-16 -17 -18 -1 -2 -3 6 -7 -8 113 0
-16 -17 -18 -1 -2 -3 -6 7 8 36 0
-16 -17 -18 -1 -2 -3 -6 7 -8 36 0
-16 -17 -18 -1 -2 -3 -6 -7 8 101 0
-16 -17 -18 -1 -2 -3 -6 -7 -8 52 0
176 177 178 11 12 13 16 17 18 258 0
176 177 178 11 12 13 16 17 -18 179 0
176 177 178 11 12 13 16 -17 18 351 0
176 177 178 11 12 13 16 -17 -18 237 0
176 177 178 11 12 13 -16 17 18 202 0
176 177 178 11 12 13 -16 17 -18 182 0
176 177 178 11 12 13 -16 -17 18 235 0
176 177 178 11 12 13 -16 -17 -18 312 0
176 177 178 11 12 -13 16 17 18 259 0
176 177 178 11 12 -13 16 17 -18 180 0
176 177 178 11 12 -13 16 -17 18 273 0
176 177 178 11 12 -13 16 -17 -18 206 0
176 177 178 11 12 -13 -16 17 18 257 0
176 177 178 11 12 -13 -16 17 -18 312 0
176 177 178 11 12 -13 -16 -17 18 328 0
176 177 178 11 12 -13 -16 -17 -18 300 0
176 177 178 11 -12 13 16 17 18 260 0
176 177 178 11 -12 13 16 17 -18 282 0
176 177 178 11 -12 13 16 -17 18 301 0
176 177 178 11 -12 13 16 -17 -18 348 0
176 177 178 11 -12 13 -16 17 18 302 0
176 177 178 11 -12 13 -16 17 -18 279 0
176 177 178 11 -12 13 -16 -17 18 280 0
176 177 178 11 -12 13 -16 -17 -18 213 0
176 177 178 11 -12 -13 16 17 18 181 0
176 177 178 11 -12 -13 16 17 -18 191 0
176 177 178 11 -12 -13 16 -17 18 288 0
176 177 178 11 -12 -13 16 -17 -18 211 0
176 177 178 11 -12 -13 -16 17 18 197 0
176 177 178 11 -12 -13 -16 17 -18 235 0
176 177 178 11 -12 -13 -16 -17 18 245 0
176 177 178 11 -12 -13 -16 -17 -18 328 0
176 177 178 -11 12 13 16 17 18 183 0
176 177 178 -11 12 13 16 17 -18 279 0
176 177 178 -11 12 13 16 -17 18 308 0
176 177 178 -11 12 13 16 -17 -18 364 0
176 177 178 -11 12 13 -16 17 18 252 0
176 177 178 -11 12 13 -16 17 -18 279 0
176 177 178 -11 12 13 -16 -17 18 279 0
176 177 178 -11 12 13 -16 -17 -18 280 0
176 177 178 -11 12 -13 16 17 18 184 0
176 177 178 -11 12 -13 16 17 -18 281 0
176 177 178 -11 12 -13 16 -17 18 207 0
176 177 178 -11 12 -13 16 -17 -18 202 0
176 177 178 -11 12 -13 -16 17 18 185 0
176 177 178 -11 12 -13 -16 17 -18 348 0
176 177 178 -11 12 -13 -16 -17 18 229 0
176 177 178 -11 12 -13 -16 -17 -18 334 0
176 177 178 -11 -12 13 16 17 18 264 0
176 177 178 -11 -12 13 16 17 -18 303 0
176 177 178 -11 -12 13 16 -17 18 335 0
176 177 178 -11 -12 13 16 -17 -18 339 0
176 177 178 -11 -12 13 -16 17 18 339 0
176 177 178 -11 -12 13 -16 17 -18 336 0
176 177 178 -11 -12 13 -16 -17 18 356 0
176 177 178 -11 -12 13 -16 -17 -18 331 0
176 177 178 -11 -12 -13 16 17 18 224 0
176 177 178 -11 -12 -13 16 17 -18 227 0
176 177 178 -11 -12 -13 16 -17 18 208 0
176 177 178 -11 -12 -13 16 -17 -18 283 0
176 177 178 -11 -12 -13 -16 17 18 276 0
176 177 178 -11 -12 -13 -16 17 -18 340 0
176 177 178 -11 -12 -13 -16 -17 18 206 0
176 177 178 -11 -12 -13 -16 -17 -18 338 0
176 177 -178 11 12 13 16 17 18 291 0
176 177 -178 11 12 13 16 17 -18 262 0
176 177 -178 11 12 13 16 -17 18 363 0
176 177 -178 11 12 13 16 -17 -18 226 0
176 177 -178 11 12 13 -16 17 18 358 0
176 177 -178 11 12 13 -16 17 -18 182 0
176 177 -178 11 12 13 -16 -17 18 235 0
176 177 -178 11 12 13 -16 -17 -18 312 0
176 177 -178 11 12 -13 16 17 18 334 0
176 177 -178 11 12 -13 16 17 -18 265 0
176 177 -178 11 12 -13 16 -17 18 261 0
176 177 -178 11 12 -13 16 -17 -18 206 0
176 177 -178 11 12 -13 -16 17 18 257 0
176 177 -178 11 12 -13 -16 17 -18 312 0
176 177 -178 11 12 -13 -16 -17 18 328 0
176 177 -178 11 12 -13 -16 -17 -18 300 0
176 177 -178 11 -12 13 16 17 18 331 0
176 177 -178 11 -12 13 16 17 -18 317 0
176 177 -178 11 -12 13 16 -17 18 314 0
176 177 -178 11 -12 13 16 -17 -18 348 0
176 177 -178 11 -12 13 -16 17 18 302 0
176 177 -178 11 -12 13 -16 17 -18 279 0
176 177 -178 11 -12 13 -16 -17 18 280 0
176 177 -178 11 -12 13 -16 -17 -18 213 0
176 177 -178 11 -12 -13 16 17 18 299 0
176 177 -178 11 -12 -13 16 17 -18 187 0
176 177 -178 11 -12 -13 16 -17 18 225 0
176 177 -178 11 -12 -13 16 -17 -18 211 0
176 177 -178 11 -12 -13 -16 17 18 197 0
176 177 -178 11 -12 -13 -16 17 -18 235 0
176 177 -178 11 -12 -13 -16 -17 18 245 0
176 177 -178 11 -12 -13 -16 -17 -18 328 0
176 177 -178 -11 12 13 16 17 18 267 0
176 177 -178 -11 12 13 16 17 -18 315 0
176 177 -178 -11 12 13 16 -17 18 248 0
176 177 -178 -11 12 13 16 -17 -18 364 0
176 177 -178 -11 12 13 -16 17 18 252 0
176 177 -178 -11 12 13 -16 17 -18 279 0
176 177 -178 -11 12 13 -16 -17 18 279 0
176 177 -178 -11 12 13 -16 -17 -18 280 0
176 177 -178 -11 12 -13 16 17 18 186 0
176 177 -178 -11 12 -13 16 17 -18 263 0
176 177 -178 -11 12 -13 16 -17 18 207 0
176 177 -178 -11 12 -13 16 -17 -18 202 0
176 177 -178 -11 12 -13 -16 17 18 185 0
176 177 -178 -11 12 -13 -16 17 -18 348 0
176 177 -178 -11 12 -13 -16 -17 18 229 0
176 177 -178 -11 12 -13 -16 -17 -18 334 0
176 177 -178 -11 -12 13 16 17 18 342 0
176 177 -178 -11 -12 13 16 17 -18 228 0
176 177 -178 -11 -12 13 16 -17 18 335 0
176 177 -178 -11 -12 13 16 -17 -18 339 0
176 177 -178 -11 -12 13 -16 17 18 339 0
176 177 -178 -11 -12 13 -16 17 -18 336 0
176 177 -178 -11 -12 13 -16 -17 18 356 0
176 177 -178 -11 -12 13 -16 -17 -18 331 0
176 177 -178 -11 -12 -13 16 17 18 188 0
176 177 -178 -11 -12 -13 16 17 -18 266 0
176 177 -178 -11 -12 -13 16 -17 18 208 0
176 177 -178 -11 -12 -13 16 -17 -18 283 0
176 177 -178 -11 -12 -13 -16 17 18 276 0
176 177 -178 -11 -12 -13 -16 17 -18 340 0
176 177 -178 -11 -12 -13 -16 -17 18 206 0
176 177 -178 -11 -12 -13 -16 -17 -18 338 0
176 -177 178 11 12 13 16 17 18 291 0
176 -177 178 11 12 13 16 17 -18 279 0
176 -177 178 11 12 13 16 -17 18 359 0
176 -177 178 11 12 13 16 -17 -18 223 0
176 -177 178 11 12 13 -16 17 18 316 0
176 -177 178 11 12 13 -16 17 -18 182 0
176 -177 178 11 12 13 -16 -17 18 235 0
176 -177 178 11 12 13 -16 -17 -18 312 0
176 -177 178 11 12 -13 16 17 18 334 0
176 -177 178 11 12 -13 16 17 -18 236 0
176 -177 178 11 12 -13 16 -17 18 189 0
176 -177 178 11 12 -13 16 -17 -18 233 0
176 -177 178 11 12 -13 -16 17 18 257 0
176 -177 178 11 12 -13 -16 17 -18 312 0
176 -177 178 11 12 -13 -16 -17 18 328 0
176 -177 178 11 12 -13 -16 -17 -18 300 0
176 -177 178 11 -12 13 16 17 18 331 0
176 -177 178 11 -12 13 16 17 -18 236 0
176 -177 178 11 -12 13 16 -17 18 239 0
176 -177 178 11 -12 13 16 -17 -18 255 0
176 -177 178 11 -12 13 -16 17 18 302 0
176 -177 178 11 -12 13 -16 17 -18 279 0
176 -177 178 11 -12 13 -16 -17 18 280 0
176 -177 178 11 -12 13 -16 -17 -18 213 0
176 -177 178 11 -12 -13 16 17 18 350 0
176 -177 178 11 -12 -13 16 17 -18 198 0
176 -177 178 11 -12 -13 16 -17 18 271 0
176 -177 178 11 -12 -13 16 -17 -18 204 0
176 -177 178 11 -12 -13 -16 17 18 197 0
176 -177 178 11 -12 -13 -16 17 -18 235 0
176 -177 178 11 -12 -13 -16 -17 18 245 0
176 -177 178 11 -12 -13 -16 -17 -18 328 0
176 -177 178 -11 12 13 16 17 18 236 0
176 -177 178 -11 12 13 16 17 -18 272 0
176 -177 178 -11 12 13 16 -17 18 357 0
176 -177 178 -11 12 13 16 -17 -18 318 0
176 -177 178 -11 12 13 -16 17 18 252 0
176 -177 178 -11 12 13 -16 17 -18 279 0
176 -177 178 -11 12 13 -16 -17 18 279 0
176 -177 178 -11 12 13 -16 -17 -18 280 0
176 -177 178 -11 12 -13 16 17 18 329 0
176 -177 178 -11 12 -13 16 17 -18 230 0
176 -177 178 -11 12 -13 16 -17 18 289 0
176 -177 178 -11 12 -13 16 -17 -18 202 0
176 -177 178 -11 12 -13 -16 17 18 185 0
176 -177 178 -11 12 -13 -16 17 -18 348 0
176 -177 178 -11 12 -13 -16 -17 18 229 0
176 -177 178 -11 12 -13 -16 -17 -18 334 0
176 -177 178 -11 -12 13 16 17 18 350 0
176 -177 178 -11 -12 13 16 17 -18 352 0
176 -177 178 -11 -12 13 16 -17 18 209 0
176 -177 178 -11 -12 13 16 -17 -18 339 0
176 -177 178 -11 -12 13 -16 17 18 339 0
176 -177 178 -11 -12 13 -16 17 -18 336 0
176 -177 178 -11 -12 13 -16 -17 18 356 0
176 -177 178 -11 -12 13 -16 -17 -18 331 0
176 -177 178 -11 -12 -13 16 17 18 191 0
176 -177 178 -11 -12 -13 16 17 -18 246 0
176 -177 178 -11 -12 -13 16 -17 18 319 0
176 -177 178 -11 -12 -13 16 -17 -18 283 0
176 -177 178 -11 -12 -13 -16 17 18 276 0
176 -177 178 -11 -12 -13 -16 17 -18 340 0
176 -177 178 -11 -12 -13 -16 -17 18 206 0
176 -177 178 -11 -12 -13 -16 -17 -18 338 0
176 -177 -178 11 12 13 16 17 18 291 0
176 -177 -178 11 12 13 16 17 -18 279 0
176 -177 -178 11 12 13 16 -17 18 313 0
176 -177 -178 11 12 13 16 -17 -18 231 0
176 -177 -178 11 12 13 -16 17 18 256 0
176 -177 -178 11 12 13 -16 17 -18 219 0
176 -177 -178 11 12 13 -16 -17 18 235 0
176 -177 -178 11 12 13 -16 -17 -18 312 0
176 -177 -178 11 12 -13 16 17 18 334 0
176 -177 -178 11 12 -13 16 17 -18 236 0
176 -177 -178 11 12 -13 16 -17 18 273 0
176 -177 -178 11 12 -13 16 -17 -18 232 0
176 -177 -178 11 12 -13 -16 17 18 192 0
176 -177 -178 11 12 -13 -16 17 -18 353 0
176 -177 -178 11 12 -13 -16 -17 18 328 0
176 -177 -178 11 12 -13 -16 -17 -18 300 0
176 -177 -178 11 -12 13 16 17 18 331 0
176 -177 -178 11 -12 13 16 17 -18 236 0
176 -177 -178 11 -12 13 16 -17 18 301 0
176 -177 -178 11 -12 13 16 -17 -18 360 0
176 -177 -178 11 -12 13 -16 17 18 241 0
176 -177 -178 11 -12 13 -16 17 -18 279 0
176 -177 -178 11 -12 13 -16 -17 18 280 0
176 -177 -178 11 -12 13 -16 -17 -18 213 0
176 -177 -178 11 -12 -13 16 17 18 350 0
176 -177 -178 11 -12 -13 16 17 -18 253 0
176 -177 -178 11 -12 -13 16 -17 18 193 0
176 -177 -178 11 -12 -13 16 -17 -18 217 0
176 -177 -178 11 -12 -13 -16 17 18 343 0
176 -177 -178 11 -12 -13 -16 17 -18 235 0
176 -177 -178 11 -12 -13 -16 -17 18 245 0
176 -177 -178 11 -12 -13 -16 -17 -18 328 0
176 -177 -178 -11 12 13 16 17 18 236 0
176 -177 -178 -11 12 13 16 17 -18 279 0
176 -177 -178 -11 12 13 16 -17 18 242 0
176 -177 -178 -11 12 13 16 -17 -18 361 0
176 -177 -178 -11 12 13 -16 17 18 243 0
176 -177 -178 -11 12 13 -16 17 -18 279 0
176 -177 -178 -11 12 13 -16 -17 18 279 0
176 -177 -178 -11 12 13 -16 -17 -18 280 0
176 -177 -178 -11 12 -13 16 17 18 329 0
176 -177 -178 -11 12 -13 16 17 -18 281 0
176 -177 -178 -11 12 -13 16 -17 18 254 0
176 -177 -178 -11 12 -13 16 -17 -18 320 0
176 -177 -178 -11 12 -13 -16 17 18 199 0
176 -177 -178 -11 12 -13 -16 17 -18 348 0
176 -177 -178 -11 12 -13 -16 -17 18 229 0
176 -177 -178 -11 12 -13 -16 -17 -18 334 0
176 -177 -178 -11 -12 13 16 17 18 350 0
176 -177 -178 -11 -12 13 16 17 -18 303 0
176 -177 -178 -11 -12 13 16 -17 18 341 0
176 -177 -178 -11 -12 13 16 -17 -18 268 0
176 -177 -178 -11 -12 13 -16 17 18 339 0
176 -177 -178 -11 -12 13 -16 17 -18 336 0
176 -177 -178 -11 -12 13 -16 -17 18 356 0
176 -177 -178 -11 -12 13 -16 -17 -18 331 0
176 -177 -178 -11 -12 -13 16 17 18 253 0
176 -177 -178 -11 -12 -13 16 17 -18 295 0
176 -177 -178 -11 -12 -13 16 -17 18 310 0
176 -177 -178 -11 -12 -13 16 -17 -18 344 0
176 -177 -178 -11 -12 -13 -16 17 18 276 0
176 -177 -178 -11 -12 -13 -16 17 -18 340 0
176 -177 -178 -11 -12 -13 -16 -17 18 206 0
176 -177 -178 -11 -12 -13 -16 -17 -18 338 0
-176 177 178 11 12 13 16 17 18 291 0
-176 177 178 11 12 13 16 17 -18 279 0
-176 177 178 11 12 13 16 -17 18 313 0
-176 177 178 11 12 13 16 -17 -18 237 0
-176 177 178 11 12 13 -16 17 18 202 0
-176 177 178 11 12 13 -16 17 -18 219 0
-176 177 178 11 12 13 -16 -17 18 195 0
-176 177 178 11 12 13 -16 -17 -18 312 0
-176 177 178 11 12 -13 16 17 18 334 0
-176 177 178 11 12 -13 16 17 -18 236 0
-176 177 178 11 12 -13 16 -17 18 273 0
-176 177 178 11 12 -13 16 -17 -18 206 0
-176 177 178 11 12 -13 -16 17 18 284 0
-176 177 178 11 12 -13 -16 17 -18 247 0
-176 177 178 11 12 -13 -16 -17 18 328 0
-176 177 178 11 12 -13 -16 -17 -18 300 0
-176 177 178 11 -12 13 16 17 18 331 0
-176 177 178 11 -12 13 16 17 -18 236 0
-176 177 178 11 -12 13 16 -17 18 301 0
-176 177 178 11 -12 13 16 -17 -18 348 0
-176 177 178 11 -12 13 -16 17 18 321 0
-176 177 178 11 -12 13 -16 17 -18 234 0
-176 177 178 11 -12 13 -16 -17 18 280 0
-176 177 178 11 -12 13 -16 -17 -18 213 0
-176 177 178 11 -12 -13 16 17 18 350 0
-176 177 178 11 -12 -13 16 17 -18 253 0
-176 177 178 11 -12 -13 16 -17 18 288 0
-176 177 178 11 -12 -13 16 -17 -18 211 0
-176 177 178 11 -12 -13 -16 17 18 203 0
-176 177 178 11 -12 -13 -16 17 -18 296 0
-176 177 178 11 -12 -13 -16 -17 18 245 0
-176 177 178 11 -12 -13 -16 -17 -18 328 0
-176 177 178 -11 12 13 16 17 18 236 0
-176 177 178 -11 12 13 16 17 -18 279 0
-176 177 178 -11 12 13 16 -17 18 308 0
-176 177 178 -11 12 13 16 -17 -18 205 0
-176 177 178 -11 12 13 -16 17 18 324 0
-176 177 178 -11 12 13 -16 17 -18 279 0
-176 177 178 -11 12 13 -16 -17 18 279 0
-176 177 178 -11 12 13 -16 -17 -18 280 0
-176 177 178 -11 12 -13 16 17 18 329 0
-176 177 178 -11 12 -13 16 17 -18 281 0
-176 177 178 -11 12 -13 16 -17 18 207 0
-176 177 178 -11 12 -13 16 -17 -18 274 0
-176 177 178 -11 12 -13 -16 17 18 214 0
-176 177 178 -11 12 -13 -16 17 -18 348 0
-176 177 178 -11 12 -13 -16 -17 18 229 0
-176 177 178 -11 12 -13 -16 -17 -18 334 0
-176 177 178 -11 -12 13 16 17 18 350 0
-176 177 178 -11 -12 13 16 17 -18 303 0
-176 177 178 -11 -12 13 16 -17 18 332 0
-176 177 178 -11 -12 13 16 -17 -18 220 0
-176 177 178 -11 -12 13 -16 17 18 322 0
-176 177 178 -11 -12 13 -16 17 -18 336 0
-176 177 178 -11 -12 13 -16 -17 18 356 0
-176 177 178 -11 -12 13 -16 -17 -18 331 0
-176 177 178 -11 -12 -13 16 17 18 253 0
-176 177 178 -11 -12 -13 16 17 -18 345 0
-176 177 178 -11 -12 -13 16 -17 18 285 0
-176 177 178 -11 -12 -13 16 -17 -18 240 0
-176 177 178 -11 -12 -13 -16 17 18 276 0
-176 177 178 -11 -12 -13 -16 17 -18 340 0
-176 177 178 -11 -12 -13 -16 -17 18 206 0
-176 177 178 -11 -12 -13 -16 -17 -18 338 0
-176 177 -178 11 12 13 16 17 18 291 0
-176 177 -178 11 12 13 16 17 -18 279 0
-176 177 -178 11 12 13 16 -17 18 313 0
-176 177 -178 11 12 13 16 -17 -18 237 0
-176 177 -178 11 12 13 -16 17 18 202 0
-176 177 -178 11 12 13 -16 17 -18 354 0
-176 177 -178 11 12 13 -16 -17 18 333 0
-176 177 -178 11 12 13 -16 -17 -18 323 0
-176 177 -178 11 12 -13 16 17 18 334 0
-176 177 -178 11 12 -13 16 17 -18 236 0
-176 177 -178 11 12 -13 16 -17 18 273 0
-176 177 -178 11 12 -13 16 -17 -18 206 0
-176 177 -178 11 12 -13 -16 17 18 257 0
-176 177 -178 11 12 -13 -16 17 -18 269 0
-176 177 -178 11 12 -13 -16 -17 18 249 0
-176 177 -178 11 12 -13 -16 -17 -18 300 0
-176 177 -178 11 -12 13 16 17 18 331 0
-176 177 -178 11 -12 13 16 17 -18 236 0
-176 177 -178 11 -12 13 16 -17 18 301 0
-176 177 -178 11 -12 13 16 -17 -18 348 0
-176 177 -178 11 -12 13 -16 17 18 302 0
-176 177 -178 11 -12 13 -16 17 -18 238 0
-176 177 -178 11 -12 13 -16 -17 18 196 0
-176 177 -178 11 -12 13 -16 -17 -18 213 0
-176 177 -178 11 -12 -13 16 17 18 350 0
-176 177 -178 11 -12 -13 16 17 -18 253 0
-176 177 -178 11 -12 -13 16 -17 18 288 0
-176 177 -178 11 -12 -13 16 -17 -18 211 0
-176 177 -178 11 -12 -13 -16 17 18 286 0
-176 177 -178 11 -12 -13 -16 17 -18 311 0
-176 177 -178 11 -12 -13 -16 -17 18 362 0
-176 177 -178 11 -12 -13 -16 -17 -18 328 0
-176 177 -178 -11 12 13 16 17 18 236 0
-176 177 -178 -11 12 13 16 17 -18 279 0
-176 177 -178 -11 12 13 16 -17 18 308 0
-176 177 -178 -11 12 13 16 -17 -18 364 0
-176 177 -178 -11 12 13 -16 17 18 250 0
-176 177 -178 -11 12 13 -16 17 -18 278 0
-176 177 -178 -11 12 13 -16 -17 18 279 0
-176 177 -178 -11 12 13 -16 -17 -18 280 0
-176 177 -178 -11 12 -13 16 17 18 329 0
-176 177 -178 -11 12 -13 16 17 -18 281 0
-176 177 -178 -11 12 -13 16 -17 18 207 0
-176 177 -178 -11 12 -13 16 -17 -18 358 0
-176 177 -178 -11 12 -13 -16 17 18 210 0
-176 177 -178 -11 12 -13 -16 17 -18 330 0
-176 177 -178 -11 12 -13 -16 -17 18 229 0
-176 177 -178 -11 12 -13 -16 -17 -18 334 0
-176 177 -178 -11 -12 13 16 17 18 350 0
-176 177 -178 -11 -12 13 16 17 -18 303 0
-176 177 -178 -11 -12 13 16 -17 18 335 0
-176 177 -178 -11 -12 13 16 -17 -18 309 0
-176 177 -178 -11 -12 13 -16 17 18 304 0
-176 177 -178 -11 -12 13 -16 17 -18 251 0
-176 177 -178 -11 -12 13 -16 -17 18 356 0
-176 177 -178 -11 -12 13 -16 -17 -18 331 0
-176 177 -178 -11 -12 -13 16 17 18 253 0
-176 177 -178 -11 -12 -13 16 17 -18 227 0
-176 177 -178 -11 -12 -13 16 -17 18 244 0
-176 177 -178 -11 -12 -13 16 -17 -18 221 0
-176 177 -178 -11 -12 -13 -16 17 18 325 0
-176 177 -178 -11 -12 -13 -16 17 -18 215 0
-176 177 -178 -11 -12 -13 -16 -17 18 206 0
-176 177 -178 -11 -12 -13 -16 -17 -18 338 0
-176 -177 178 11 12 13 16 17 18 291 0
-176 -177 178 11 12 13 16 17 -18 279 0
-176 -177 178 11 12 13 16 -17 18 313 0
-176 -177 178 11 12 13 16 -17 -18 237 0
-176 -177 178 11 12 13 -16 17 18 202 0
-176 -177 178 11 12 13 -16 17 -18 182 0
-176 -177 178 11 12 13 -16 -17 18 346 0
-176 -177 178 11 12 13 -16 -17 -18 194 0
-176 -177 178 11 12 -13 16 17 18 334 0
-176 -177 178 11 12 -13 16 17 -18 236 0
-176 -177 178 11 12 -13 16 -17 18 273 0
-176 -177 178 11 12 -13 16 -17 -18 206 0
-176 -177 178 11 12 -13 -16 17 18 257 0
-176 -177 178 11 12 -13 -16 17 -18 312 0
-176 -177 178 11 12 -13 -16 -17 18 307 0
-176 -177 178 11 12 -13 -16 -17 -18 292 0
-176 -177 178 11 -12 13 16 17 18 331 0
-176 -177 178 11 -12 13 16 17 -18 236 0
-176 -177 178 11 -12 13 16 -17 18 301 0
-176 -177 178 11 -12 13 16 -17 -18 348 0
-176 -177 178 11 -12 13 -16 17 18 302 0
-176 -177 178 11 -12 13 -16 17 -18 279 0
-176 -177 178 11 -12 13 -16 -17 18 190 0
-176 -177 178 11 -12 13 -16 -17 -18 270 0
-176 -177 178 11 -12 -13 16 17 18 350 0
-176 -177 178 11 -12 -13 16 17 -18 253 0
-176 -177 178 11 -12 -13 16 -17 18 288 0
-176 -177 178 11 -12 -13 16 -17 -18 211 0
-176 -177 178 11 -12 -13 -16 17 18 197 0
-176 -177 178 11 -12 -13 -16 17 -18 216 0
-176 -177 178 11 -12 -13 -16 -17 18 212 0
-176 -177 178 11 -12 -13 -16 -17 -18 355 0
-176 -177 178 -11 12 13 16 17 18 236 0
-176 -177 178 -11 12 13 16 17 -18 279 0
-176 -177 178 -11 12 13 16 -17 18 308 0
-176 -177 178 -11 12 13 16 -17 -18 364 0
-176 -177 178 -11 12 13 -16 17 18 252 0
-176 -177 178 -11 12 13 -16 17 -18 349 0
-176 -177 178 -11 12 13 -16 -17 18 278 0
-176 -177 178 -11 12 13 -16 -17 -18 298 0
-176 -177 178 -11 12 -13 16 17 18 329 0
-176 -177 178 -11 12 -13 16 17 -18 281 0
-176 -177 178 -11 12 -13 16 -17 18 207 0
-176 -177 178 -11 12 -13 16 -17 -18 202 0
-176 -177 178 -11 12 -13 -16 17 18 185 0
-176 -177 178 -11 12 -13 -16 17 -18 222 0
-176 -177 178 -11 12 -13 -16 -17 18 287 0
-176 -177 178 -11 12 -13 -16 -17 -18 334 0
-176 -177 178 -11 -12 13 16 17 18 350 0
-176 -177 178 -11 -12 13 16 17 -18 303 0
-176 -177 178 -11 -12 13 16 -17 18 335 0
-176 -177 178 -11 -12 13 16 -17 -18 339 0
-176 -177 178 -11 -12 13 -16 17 18 309 0
-176 -177 178 -11 -12 13 -16 17 -18 293 0
-176 -177 178 -11 -12 13 -16 -17 18 294 0
-176 -177 178 -11 -12 13 -16 -17 -18 331 0
-176 -177 178 -11 -12 -13 16 17 18 253 0
-176 -177 178 -11 -12 -13 16 17 -18 227 0
-176 -177 178 -11 -12 -13 16 -17 18 208 0
-176 -177 178 -11 -12 -13 16 -17 -18 344 0
-176 -177 178 -11 -12 -13 -16 17 18 325 0
-176 -177 178 -11 -12 -13 -16 17 -18 275 0
-176 -177 178 -11 -12 -13 -16 -17 18 347 0
-176 -177 178 -11 -12 -13 -16 -17 -18 338 0
-176 -177 -178 11 12 13 16 17 18 291 0
-176 -177 -178 11 12 13 16 17 -18 279 0
-176 -177 -178 11 12 13 16 -17 18 313 0
-176 -177 -178 11 12 13 16 -17 -18 237 0
-176 -177 -178 11 12 13 -16 17 18 202 0
-176 -177 -178 11 12 13 -16 17 -18 182 0
-176 -177 -178 11 12 13 -16 -17 18 235 0
-176 -177 -178 11 12 13 -16 -17 -18 305 0
-176 -177 -178 11 12 -13 16 17 18 334 0
-176 -177 -178 11 12 -13 16 17 -18 236 0
-176 -177 -178 11 12 -13 16 -17 18 273 0
-176 -177 -178 11 12 -13 16 -17 -18 206 0
-176 -177 -178 11 12 -13 -16 17 18 257 0
-176 -177 -178 11 12 -13 -16 17 -18 312 0
-176 -177 -178 11 12 -13 -16 -17 18 328 0
-176 -177 -178 11 12 -13 -16 -17 -18 326 0
-176 -177 -178 11 -12 13 16 17 18 331 0
-176 -177 -178 11 -12 13 16 17 -18 236 0
-176 -177 -178 11 -12 13 16 -17 18 301 0
-176 -177 -178 11 -12 13 16 -17 -18 348 0
-176 -177 -178 11 -12 13 -16 17 18 302 0
-176 -177 -178 11 -12 13 -16 17 -18 279 0
-176 -177 -178 11 -12 13 -16 -17 18 280 0
-176 -177 -178 11 -12 13 -16 -17 -18 277 0
-176 -177 -178 11 -12 -13 16 17 18 350 0
-176 -177 -178 11 -12 -13 16 17 -18 253 0
-176 -177 -178 11 -12 -13 16 -17 18 288 0
-176 -177 -178 11 -12 -13 16 -17 -18 211 0
-176 -177 -178 11 -12 -13 -16 17 18 197 0
-176 -177 -178 11 -12 -13 -16 17 -18 235 0
-176 -177 -178 11 -12 -13 -16 -17 18 218 0
-176 -177 -178 11 -12 -13 -16 -17 -18 337 0
-176 -177 -178 -11 12 13 16 17 18 236 0
-176 -177 -178 -11 12 13 16 17 -18 279 0
-176 -177 -178 -11 12 13 16 -17 18 308 0
-176 -177 -178 -11 12 13 16 -17 -18 364 0
-176 -177 -178 -11 12 13 -16 17 18 252 0
-176 -177 -178 -11 12 13 -16 17 -18 279 0
-176 -177 -178 -11 12 13 -16 -17 18 349 0
-176 -177 -178 -11 12 13 -16 -17 -18 290 0
-176 -177 -178 -11 12 -13 16 17 18 329 0
-176 -177 -178 -11 12 -13 16 17 -18 281 0
-176 -177 -178 -11 12 -13 16 -17 18 207 0
-176 -177 -178 -11 12 -13 16 -17 -18 202 0
-176 -177 -178 -11 12 -13 -16 17 18 185 0
-176 -177 -178 -11 12 -13 -16 17 -18 348 0
-176 -177 -178 -11 12 -13 -16 -17 18 306 0
-176 -177 -178 -11 12 -13 -16 -17 -18 259 0
-176 -177 -178 -11 -12 13 16 17 18 350 0
-176 -177 -178 -11 -12 13 16 17 -18 303 0
-176 -177 -178 -11 -12 13 16 -17 18 335 0
-176 -177 -178 -11 -12 13 16 -17 -18 339 0
-176 -177 -178 -11 -12 13 -16 17 18 339 0
-176 -177 -178 -11 -12 13 -16 17 -18 336 0
-176 -177 -178 -11 -12 13 -16 -17 18 327 0
-176 -177 -178 -11 -12 13 -16 -17 -18 260 0
-176 -177 -178 -11 -12 -13 16 17 18 253 0
-176 -177 -178 -11 -12 -13 16 17 -18 227 0
-176 -177 -178 -11 -12 -13 16 -17 18 208 0
-176 -177 -178 -11 -12 -13 16 -17 -18 283 0
-176 -177 -178 -11 -12 -13 -16 17 18 276 0
-176 -177 -178 -11 -12 -13 -16 17 -18 201 0
-176 -177 -178 -11 -12 -13 -16 -17 18 200 0
-176 -177 -178 -11 -12 -13 -16 -17 -18 297 0
